CUST NO.,XCOORD.,YCOORD.,updated_SERVICE_TIME,DEMAND,TW_START,TW_END
1,41,49.0,8,0.8,650.0,1000.0
3,55,45.0,8,0.8,400.0,750.0
8,10,43.0,8,9.0,0.0,600.0
11,20,65.0,8,1.1,0.0,600.0
12,50,35.0,8,1.2,0.0,600.0
13,30,25.0,8,23.0,650.0,1000.0
14,15,10.0,8,0.5,0.0,600.0
15,30,5.0,8,1.3,0.0,600.0
19,15,60.0,8,1.7,0.0,600.0
21,45,20.0,8,0.8999999999999999,0.0,600.0
23,55,5.0,8,29.0,0.0,600.0
25,65,20.0,8,0.8,650.0,1000.0
26,35,35.0,0,0.0,0.0,0.0
capacity,1000,,0,0.0,,
